/* Cplex Data generated on 2017-12-16 */

k = 65;

b = 30;

AtomicConstraints = {
	 <1, 7>,
	 <1, 8>,
	 <1, 9>,
	 <1, 17>,
	 <1, 18>,
	 <1, 19>,
	 <1, 20>,
	 <1, 23>,
	 <1, 26>,
	 <1, 64>,
	 <1, 65>,
	 <2, 7>,
	 <2, 8>,
	 <2, 9>,
	 <2, 17>,
	 <2, 18>,
	 <2, 19>,
	 <2, 20>,
	 <2, 21>,
	 <2, 23>,
	 <2, 26>,
	 <2, 64>,
	 <2, 65>,
	 <3, 7>,
	 <3, 8>,
	 <3, 9>,
	 <3, 17>,
	 <3, 18>,
	 <3, 19>,
	 <3, 20>,
	 <3, 21>,
	 <3, 22>,
	 <3, 23>,
	 <3, 64>,
	 <3, 65>,
	 <10, 4>,
	 <10, 5>,
	 <10, 6>,
	 <10, 7>,
	 <10, 8>,
	 <10, 9>,
	 <10, 11>,
	 <10, 13>,
	 <10, 17>,
	 <10, 18>,
	 <10, 19>,
	 <10, 20>,
	 <10, 21>,
	 <10, 22>,
	 <10, 64>,
	 <10, 65>,
	 <11, 4>,
	 <11, 5>,
	 <11, 6>,
	 <11, 7>,
	 <11, 8>,
	 <11, 9>,
	 <11, 17>,
	 <11, 18>,
	 <11, 19>,
	 <11, 20>,
	 <11, 21>,
	 <11, 22>,
	 <11, 64>,
	 <11, 65>,
	 <12, 4>,
	 <12, 5>,
	 <12, 6>,
	 <12, 7>,
	 <12, 8>,
	 <12, 9>,
	 <12, 11>,
	 <12, 13>,
	 <12, 14>,
	 <12, 17>,
	 <12, 18>,
	 <12, 19>,
	 <12, 20>,
	 <12, 21>,
	 <12, 22>,
	 <12, 64>,
	 <12, 65>,
	 <13, 4>,
	 <13, 5>,
	 <13, 6>,
	 <13, 7>,
	 <13, 8>,
	 <13, 9>,
	 <13, 17>,
	 <13, 18>,
	 <13, 19>,
	 <13, 20>,
	 <13, 21>,
	 <13, 22>,
	 <13, 64>,
	 <13, 65>,
	 <61, 4>,
	 <61, 5>,
	 <61, 6>,
	 <61, 7>,
	 <61, 8>,
	 <61, 9>,
	 <61, 11>,
	 <61, 13>,
	 <61, 14>,
	 <61, 17>,
	 <61, 18>,
	 <61, 19>,
	 <61, 20>,
	 <61, 21>,
	 <61, 22>,
	 <61, 64>,
	 <61, 65>,
	 <61, 57>,
	 <61, 58>,
	 <61, 54>,
	 <61, 60>,
	 <61, 55>,
	 <14, 4>,
	 <14, 5>,
	 <14, 6>,
	 <14, 7>,
	 <14, 8>,
	 <14, 9>,
	 <14, 17>,
	 <14, 18>,
	 <14, 19>,
	 <14, 20>,
	 <14, 21>,
	 <14, 22>,
	 <14, 64>,
	 <14, 65>,
	 <14, 57>,
	 <14, 58>,
	 <14, 54>,
	 <14, 60>,
	 <14, 55>,
	 <62, 63>,
	 <62, 64>,
	 <62, 65>,
	 <15, 59>,
	 <15, 63>,
	 <15, 56>,
	 <15, 64>,
	 <15, 53>,
	 <15, 65>,
	 <16, 59>,
	 <16, 63>,
	 <16, 56>,
	 <16, 64>,
	 <16, 53>,
	 <16, 65>,
	 <17, 7>,
	 <17, 8>,
	 <17, 64>,
	 <18, 7>,
	 <18, 8>,
	 <18, 9>,
	 <18, 64>,
	 <19, 7>,
	 <19, 8>,
	 <19, 9>,
	 <19, 64>,
	 <20, 7>,
	 <20, 8>,
	 <20, 9>,
	 <20, 64>,
	 <21, 7>,
	 <21, 8>,
	 <21, 9>,
	 <21, 64>,
	 <22, 7>,
	 <22, 8>,
	 <22, 9>,
	 <22, 64>,
	 <23, 64>,
	 <34, 23>,
	 <34, 26>,
	 <34, 27>,
	 <34, 28>,
	 <34, 56>,
	 <34, 64>,
	 <34, 65>,
	 <39, 23>,
	 <39, 34>,
	 <39, 26>,
	 <39, 27>,
	 <39, 28>,
	 <39, 37>,
	 <39, 56>,
	 <39, 64>,
	 <39, 65>,
	 <36, 23>,
	 <36, 34>,
	 <36, 39>,
	 <36, 26>,
	 <36, 27>,
	 <36, 28>,
	 <36, 37>,
	 <36, 38>,
	 <36, 56>,
	 <36, 64>,
	 <36, 65>,
	 <52, 23>,
	 <52, 34>,
	 <52, 39>,
	 <52, 36>,
	 <52, 26>,
	 <52, 27>,
	 <52, 28>,
	 <52, 37>,
	 <52, 38>,
	 <52, 35>,
	 <52, 56>,
	 <52, 64>,
	 <52, 65>,
	 <49, 23>,
	 <49, 34>,
	 <49, 39>,
	 <49, 36>,
	 <49, 52>,
	 <49, 26>,
	 <49, 27>,
	 <49, 28>,
	 <49, 37>,
	 <49, 38>,
	 <49, 35>,
	 <49, 48>,
	 <49, 56>,
	 <49, 64>,
	 <49, 65>,
	 <51, 23>,
	 <51, 34>,
	 <51, 39>,
	 <51, 36>,
	 <51, 52>,
	 <51, 49>,
	 <51, 26>,
	 <51, 27>,
	 <51, 28>,
	 <51, 37>,
	 <51, 38>,
	 <51, 35>,
	 <51, 48>,
	 <51, 47>,
	 <51, 56>,
	 <51, 64>,
	 <51, 53>,
	 <51, 65>,
	 <31, 23>,
	 <31, 34>,
	 <31, 39>,
	 <31, 36>,
	 <31, 52>,
	 <31, 49>,
	 <31, 51>,
	 <31, 26>,
	 <31, 27>,
	 <31, 28>,
	 <31, 37>,
	 <31, 38>,
	 <31, 35>,
	 <31, 48>,
	 <31, 47>,
	 <31, 50>,
	 <31, 56>,
	 <31, 64>,
	 <31, 53>,
	 <31, 65>,
	 <32, 23>,
	 <32, 34>,
	 <32, 39>,
	 <32, 36>,
	 <32, 52>,
	 <32, 49>,
	 <32, 51>,
	 <32, 31>,
	 <32, 26>,
	 <32, 27>,
	 <32, 28>,
	 <32, 37>,
	 <32, 38>,
	 <32, 35>,
	 <32, 48>,
	 <32, 47>,
	 <32, 50>,
	 <32, 56>,
	 <32, 64>,
	 <32, 53>,
	 <32, 65>,
	 <33, 23>,
	 <33, 34>,
	 <33, 39>,
	 <33, 36>,
	 <33, 52>,
	 <33, 49>,
	 <33, 51>,
	 <33, 31>,
	 <33, 32>,
	 <33, 26>,
	 <33, 27>,
	 <33, 28>,
	 <33, 37>,
	 <33, 38>,
	 <33, 35>,
	 <33, 48>,
	 <33, 47>,
	 <33, 50>,
	 <33, 56>,
	 <33, 64>,
	 <33, 53>,
	 <33, 65>,
	 <24, 23>,
	 <24, 34>,
	 <24, 39>,
	 <24, 36>,
	 <24, 52>,
	 <24, 49>,
	 <24, 51>,
	 <24, 31>,
	 <24, 32>,
	 <24, 33>,
	 <24, 26>,
	 <24, 27>,
	 <24, 28>,
	 <24, 37>,
	 <24, 38>,
	 <24, 35>,
	 <24, 48>,
	 <24, 47>,
	 <24, 50>,
	 <24, 29>,
	 <24, 56>,
	 <24, 64>,
	 <24, 53>,
	 <24, 65>,
	 <25, 23>,
	 <25, 34>,
	 <25, 39>,
	 <25, 36>,
	 <25, 52>,
	 <25, 49>,
	 <25, 51>,
	 <25, 31>,
	 <25, 32>,
	 <25, 33>,
	 <25, 24>,
	 <25, 26>,
	 <25, 27>,
	 <25, 28>,
	 <25, 37>,
	 <25, 38>,
	 <25, 35>,
	 <25, 48>,
	 <25, 47>,
	 <25, 50>,
	 <25, 29>,
	 <25, 56>,
	 <25, 64>,
	 <25, 53>,
	 <25, 65>,
	 <46, 23>,
	 <46, 34>,
	 <46, 39>,
	 <46, 36>,
	 <46, 52>,
	 <46, 49>,
	 <46, 51>,
	 <46, 31>,
	 <46, 32>,
	 <46, 33>,
	 <46, 24>,
	 <46, 25>,
	 <46, 26>,
	 <46, 27>,
	 <46, 28>,
	 <46, 37>,
	 <46, 38>,
	 <46, 35>,
	 <46, 48>,
	 <46, 47>,
	 <46, 50>,
	 <46, 29>,
	 <46, 30>,
	 <46, 56>,
	 <46, 64>,
	 <46, 53>,
	 <46, 65>,
	 <41, 23>,
	 <41, 34>,
	 <41, 39>,
	 <41, 36>,
	 <41, 52>,
	 <41, 49>,
	 <41, 51>,
	 <41, 31>,
	 <41, 32>,
	 <41, 33>,
	 <41, 24>,
	 <41, 25>,
	 <41, 46>,
	 <41, 26>,
	 <41, 27>,
	 <41, 28>,
	 <41, 37>,
	 <41, 38>,
	 <41, 35>,
	 <41, 48>,
	 <41, 47>,
	 <41, 50>,
	 <41, 29>,
	 <41, 30>,
	 <41, 56>,
	 <41, 64>,
	 <41, 53>,
	 <41, 65>,
	 <44, 23>,
	 <44, 34>,
	 <44, 39>,
	 <44, 36>,
	 <44, 52>,
	 <44, 49>,
	 <44, 51>,
	 <44, 31>,
	 <44, 32>,
	 <44, 33>,
	 <44, 24>,
	 <44, 25>,
	 <44, 46>,
	 <44, 41>,
	 <44, 26>,
	 <44, 27>,
	 <44, 28>,
	 <44, 37>,
	 <44, 38>,
	 <44, 35>,
	 <44, 48>,
	 <44, 47>,
	 <44, 50>,
	 <44, 29>,
	 <44, 30>,
	 <44, 40>,
	 <44, 56>,
	 <44, 64>,
	 <44, 53>,
	 <44, 65>,
	 <42, 23>,
	 <42, 34>,
	 <42, 39>,
	 <42, 36>,
	 <42, 52>,
	 <42, 49>,
	 <42, 51>,
	 <42, 31>,
	 <42, 32>,
	 <42, 33>,
	 <42, 24>,
	 <42, 25>,
	 <42, 46>,
	 <42, 41>,
	 <42, 44>,
	 <42, 26>,
	 <42, 27>,
	 <42, 28>,
	 <42, 37>,
	 <42, 38>,
	 <42, 35>,
	 <42, 48>,
	 <42, 47>,
	 <42, 50>,
	 <42, 29>,
	 <42, 30>,
	 <42, 40>,
	 <42, 43>,
	 <42, 56>,
	 <42, 64>,
	 <42, 53>,
	 <42, 65>,
	 <26, 64>,
	 <27, 23>,
	 <27, 26>,
	 <27, 64>,
	 <28, 23>,
	 <28, 26>,
	 <28, 27>,
	 <28, 56>,
	 <28, 64>,
	 <37, 23>,
	 <37, 26>,
	 <37, 27>,
	 <37, 28>,
	 <37, 56>,
	 <37, 64>,
	 <37, 65>,
	 <38, 23>,
	 <38, 34>,
	 <38, 26>,
	 <38, 27>,
	 <38, 28>,
	 <38, 37>,
	 <38, 56>,
	 <38, 64>,
	 <38, 65>,
	 <35, 23>,
	 <35, 34>,
	 <35, 39>,
	 <35, 26>,
	 <35, 27>,
	 <35, 28>,
	 <35, 37>,
	 <35, 38>,
	 <35, 56>,
	 <35, 64>,
	 <35, 65>,
	 <48, 23>,
	 <48, 34>,
	 <48, 39>,
	 <48, 36>,
	 <48, 26>,
	 <48, 27>,
	 <48, 28>,
	 <48, 37>,
	 <48, 38>,
	 <48, 35>,
	 <48, 56>,
	 <48, 64>,
	 <48, 65>,
	 <47, 23>,
	 <47, 34>,
	 <47, 39>,
	 <47, 36>,
	 <47, 52>,
	 <47, 26>,
	 <47, 27>,
	 <47, 28>,
	 <47, 37>,
	 <47, 38>,
	 <47, 35>,
	 <47, 48>,
	 <47, 56>,
	 <47, 64>,
	 <47, 53>,
	 <47, 65>,
	 <50, 23>,
	 <50, 34>,
	 <50, 39>,
	 <50, 36>,
	 <50, 52>,
	 <50, 49>,
	 <50, 26>,
	 <50, 27>,
	 <50, 28>,
	 <50, 37>,
	 <50, 38>,
	 <50, 35>,
	 <50, 48>,
	 <50, 47>,
	 <50, 56>,
	 <50, 64>,
	 <50, 53>,
	 <50, 65>,
	 <29, 23>,
	 <29, 34>,
	 <29, 39>,
	 <29, 36>,
	 <29, 52>,
	 <29, 49>,
	 <29, 51>,
	 <29, 31>,
	 <29, 32>,
	 <29, 26>,
	 <29, 27>,
	 <29, 28>,
	 <29, 37>,
	 <29, 38>,
	 <29, 35>,
	 <29, 48>,
	 <29, 47>,
	 <29, 50>,
	 <29, 56>,
	 <29, 64>,
	 <29, 53>,
	 <29, 65>,
	 <30, 23>,
	 <30, 34>,
	 <30, 39>,
	 <30, 36>,
	 <30, 52>,
	 <30, 49>,
	 <30, 51>,
	 <30, 31>,
	 <30, 32>,
	 <30, 33>,
	 <30, 24>,
	 <30, 26>,
	 <30, 27>,
	 <30, 28>,
	 <30, 37>,
	 <30, 38>,
	 <30, 35>,
	 <30, 48>,
	 <30, 47>,
	 <30, 50>,
	 <30, 29>,
	 <30, 56>,
	 <30, 64>,
	 <30, 53>,
	 <30, 65>,
	 <40, 23>,
	 <40, 34>,
	 <40, 39>,
	 <40, 36>,
	 <40, 52>,
	 <40, 49>,
	 <40, 51>,
	 <40, 31>,
	 <40, 32>,
	 <40, 33>,
	 <40, 24>,
	 <40, 25>,
	 <40, 46>,
	 <40, 26>,
	 <40, 27>,
	 <40, 28>,
	 <40, 37>,
	 <40, 38>,
	 <40, 35>,
	 <40, 48>,
	 <40, 47>,
	 <40, 50>,
	 <40, 29>,
	 <40, 30>,
	 <40, 56>,
	 <40, 64>,
	 <40, 53>,
	 <40, 65>,
	 <43, 23>,
	 <43, 34>,
	 <43, 39>,
	 <43, 36>,
	 <43, 52>,
	 <43, 49>,
	 <43, 51>,
	 <43, 31>,
	 <43, 32>,
	 <43, 33>,
	 <43, 24>,
	 <43, 25>,
	 <43, 46>,
	 <43, 41>,
	 <43, 26>,
	 <43, 27>,
	 <43, 28>,
	 <43, 37>,
	 <43, 38>,
	 <43, 35>,
	 <43, 48>,
	 <43, 47>,
	 <43, 50>,
	 <43, 29>,
	 <43, 30>,
	 <43, 40>,
	 <43, 56>,
	 <43, 64>,
	 <43, 53>,
	 <43, 65>,
	 <45, 23>,
	 <45, 34>,
	 <45, 39>,
	 <45, 36>,
	 <45, 52>,
	 <45, 49>,
	 <45, 51>,
	 <45, 31>,
	 <45, 32>,
	 <45, 33>,
	 <45, 24>,
	 <45, 25>,
	 <45, 46>,
	 <45, 41>,
	 <45, 44>,
	 <45, 26>,
	 <45, 27>,
	 <45, 28>,
	 <45, 37>,
	 <45, 38>,
	 <45, 35>,
	 <45, 48>,
	 <45, 47>,
	 <45, 50>,
	 <45, 29>,
	 <45, 30>,
	 <45, 40>,
	 <45, 43>,
	 <45, 56>,
	 <45, 64>,
	 <45, 53>,
	 <45, 65>,
	 <59, 56>,
	 <59, 64>,
	 <59, 53>,
	 <59, 65>,
	 <63, 64>,
	 <63, 65>,
	 <53, 56>,
	 <53, 64>,
	 <65, 64>,
	 <58, 57>,
	 <54, 57>,
	 <54, 58>,
	 <60, 57>,
	 <60, 58>,
	 <60, 54>,
	 <55, 57>,
	 <55, 58>,
	 <55, 54>,
	 <55, 60>,
	 }; 

SoftAtomicConstraints = {
	 <2, 1>,
	 <3, 2>,
	 <5, 4>,
	 <6, 5>,
	 <8, 7>,
	 <9, 8>,
	 <12, 10>,
	 <13, 11>,
	 <61, 12>,
	 <14, 13>,
	 <16, 15>,
	 <18, 17>,
	 <19, 18>,
	 <20, 19>,
	 <21, 20>,
	 <22, 21>,
	 <23, 26>,
	 <33, 29>,
	 <25, 30>,
	 <36, 35>,
	 <34, 37>,
	 <39, 38>,
	 <41, 40>,
	 <44, 43>,
	 <42, 45>,
	 <49, 47>,
	 <52, 48>,
	 <51, 50>,
	 <15, 62>,
	 <59, 63>,
	 <56, 64>,
	 <53, 65>,
	 }; 

DisjunctiveConstraints = {
	 <1, 20, 50, 1>,
	 <1, 49, 1, 19>,
	 <2, 3, 2, 1>,
	 <2, 21, 51, 2>,
	 <2, 50, 2, 20>,
	 <3, 22, 52, 3>,
	 <3, 51, 3, 21>,
	 <5, 6, 5, 4>,
	 <8, 9, 8, 7>,
	 <12, 61, 12, 10>,
	 <12, 57, 27, 12>,
	 <12, 58, 28, 12>,
	 <13, 14, 13, 11>,
	 <13, 57, 27, 13>,
	 <61, 60, 30, 61>,
	 <14, 60, 30, 14>,
	 <14, 55, 25, 14>,
	 <15, 16, 15, 62>,
	 <15, 56, 26, 15>,
	 <18, 19, 18, 17>,
	 <19, 20, 19, 18>,
	 <20, 21, 20, 19>,
	 <21, 22, 21, 20>,
	 <46, 34, 46, 4>,
	 <46, 53, 46, 23>,
	 <41, 34, 41, 4>,
	 <41, 53, 41, 23>,
	 <44, 34, 44, 4>,
	 <44, 36, 44, 6>,
	 <44, 53, 44, 23>,
	 <42, 34, 42, 4>,
	 <42, 36, 42, 6>,
	 <42, 53, 42, 23>,
	 <30, 27, 30, 57>,
	 <30, 28, 30, 58>,
	 <40, 27, 40, 57>,
	 <40, 28, 40, 58>,
	 <40, 56, 40, 26>,
	 <43, 34, 4, 43>,
	 <43, 27, 43, 57>,
	 <43, 28, 43, 58>,
	 <43, 35, 43, 5>,
	 <43, 56, 43, 26>,
	 <45, 34, 4, 45>,
	 <45, 27, 45, 57>,
	 <45, 28, 45, 58>,
	 <45, 35, 45, 5>,
	 <45, 56, 45, 26>,
	 }; 

DirectSuccessors = {
	 }; 

